(set-logic QF_S)
(set-option :strings-exp true)
(set-option :produce-models true)
(declare-fun sigmaStar_0 () String)
(declare-fun sigmaStar_3 () String)
(declare-fun literal_9 () String)
(assert (= literal_9 "\x3c\x69\x66\x72\x61\x6d\x65\x20\x6e\x61\x6d\x65\x3d\x5c\x22\x74\x68\x65\x6d\x65\x5c\x22\x20\x73\x72\x63\x3d\x5c\x22\x70\x72\x65\x76\x69\x65\x77\x2e\x70\x68\x70\x3f\x70\x72\x65\x76\x69\x65\x77\x3d\x74\x68\x65\x6d\x65\x5c\x22\x20\x68\x65\x69\x67\x68\x74\x3d\x5c\x22\x32\x30\x30\x5c\x22\x20\x77\x69\x64\x74\x68\x3d\x5c\x22\x34\x30\x30\x5c\x22\x3e\x3c\x2f\x69\x66\x72\x61\x6d\x65\x3e\x3c\x2f\x74\x64\x3e"))
(assert (str.in.re literal_9 (re.++ (re.* re.allchar) (re.++ (str.to.re "\x5c\x3c\x53\x43\x52\x49\x50\x54") (re.* re.allchar)))))
(check-sat)
(get-model)
